p cnf 37 28
c p distribution  0.875 0.125
c p distribution  0.875 0.125
c p distribution  0.875 0.125
c p distribution  0.875 0.125
c p distribution  0.875 0.125
c p distribution  0.875 0.125
c p distribution  0.875 0.125
c p distribution  0.875 0.125
c p distribution  0.875 0.125
c p distribution  0.875 0.125
c p distribution  0.875 0.125
c p distribution  0.875 0.125
c p distribution  0.875 0.125
33 0
-32 0
34 -30 -1 0
30 -34 -1 0
29 -27 -3 0
27 -29 -3 0
34 -30 -5 0
30 -34 -5 0
28 -31 -7 0
31 -28 -7 0
29 -31 -9 0
31 -29 -9 0
28 -30 -11 0
30 -28 -11 0
28 -36 -13 0
36 -28 -13 0
37 -33 -15 0
33 -37 -15 0
29 -31 -17 0
31 -29 -17 0
31 -37 -19 0
37 -31 -19 0
28 -36 -21 0
36 -28 -21 0
31 -32 -23 0
32 -31 -23 0
35 -27 -25 0
27 -35 -25 0

